NAME : block_22.330537.tour
COMMENT : Length = 330537
COMMENT : Found by LKH-3 [Keld Helsgaun] Mon Feb  2 23:13:24 2026
TYPE : TOUR
DIMENSION : 94
TOUR_SECTION
21
29
37
45
53
61
69
77
84
90
91
85
78
70
62
54
46
38
30
22
14
7
8
15
23
31
39
47
55
63
71
79
86
92
87
80
81
74
73
72
64
56
65
57
49
48
40
32
24
2
94
1
16
9
17
25
33
41
42
34
26
18
10
3
4
11
19
27
35
43
51
50
58
66
59
67
75
82
88
93
89
83
76
68
60
52
44
36
28
20
12
5
6
13
-1
EOF
